n_res = 4;
rc = [ 0, 0, 0, 0 ];
n_tasks = 30;
d = [ 9, 4, 5, 7, 1, 3, 9, 8, 10, 6, 5, 10, 3, 6, 9, 3, 4, 10, 7, 10, 6, 7, 8, 1, 7, 3, 7, 8, 3, 3 ];
rr = [| 0, 0, 0, 0, 0, 0, 0, 0, 0, 0, 0, 0, 0, 0, 0, 0, 0, 0, 0, 0, 0, 0, 0, 0, 0, 0, 0, 0, 0, 0
      | 0, 0, 0, 0, 0, 0, 0, 0, 0, 0, 0, 0, 0, 0, 0, 0, 0, 0, 0, 0, 0, 0, 0, 0, 0, 0, 0, 0, 0, 0
      | 0, 0, 0, 0, 0, 0, 0, 0, 0, 0, 0, 0, 0, 0, 0, 0, 0, 0, 0, 0, 0, 0, 0, 0, 0, 0, 0, 0, 0, 0
      | 0, 0, 0, 0, 0, 0, 0, 0, 0, 0, 0, 0, 0, 0, 0, 0, 0, 0, 0, 0, 0, 0, 0, 0, 0, 0, 0, 0, 0, 0 |];
suc = [ { 4, 8, 18 },
       { 9, 12, 13 },
       { 5, 6, 7 },
       { 5 },
       { 25 },
       { 27 },
       { 25 },
       { 10, 13, 16 },
       { 11, 15, 17 },
       { 14, 30 },
       { 28 },
       { 22, 23 },
       { 19, 27, 29 },
       { 21 },
       { 26 },
       { 27, 30 },
       { 29 },
       { 20 },
       { 24 },
       { 25 },
       { 22 },
       { 26 },
       { 24 },
       { 26 },
       { 29 },
       { 28 },
       { 28 },
       {  },
       {  },
       {  } ];
